proyfinal/src/viki/013/experimentInOfficeAgust.take6.output/7b78feb8-196b-4a95-9153-f3e0b9f28be3.als.dat
{'cnf.clauses': '118081',
 'cnf.totvars': '69608',
 'conflict literals': '59',
 'conflicts': '18',
 'decisions': '2431',
 'memused.mb': '15.40',
 'outcome': 'UNSAT',
 'propagations': '19526',
 'restarts': '1',
 'solver.msecs': 40,
 'task.msecs': 139}
