proyfinal/src/viki/013/experimentInOfficeAgust.take6.output/7b78feb8-196b-4a95-9153-f3e0b9f28be3.als.out
Reading from standard input... Use '--help' for help.
============================[ Problem Statistics ]=============================
|                                                                             |
|  Number of variables:         69608                                         |
|  Number of clauses:          118081                                         |
|  Parse time:                   0.03 s                                       |
|                                                                             |
============================[ Search Statistics ]==============================
| Conflicts |          ORIGINAL         |          LEARNT          | Progress |
|           |    Vars  Clauses Literals |    Limit  Clauses Lit/Cl |          |
===============================================================================
===============================================================================
restarts              : 1
conflicts             : 18             (440 /sec)
decisions             : 2431           (0.00 % random) (59358 /sec)
propagations          : 19526          (476767 /sec)
conflict literals     : 59             (0.00 % deleted)
Memory used           : 15.40 MB
CPU time              : 0.040955 s

UNSATISFIABLE
